problems/csplib-prob030/BalancedAcademicCurriculumProblem-models/noch/O0/minion/model-bacp-24-solution000001.eprime-solution
language ESSENCE' 1.0

letting curr_Function1D be
        [1, 10, 3, 2, 1, 9, 2, 2, 2, 1, 8, 1, 2, 1, 7, 7, 3, 3, 6, 3, 4, 3, 5, 5, 4, 5, 6, 4, 8, 3, 9, 4, 3, 3, 3, 4,
         10, 4, 4, 3, 2, 2, 2, 2, 2, 1, 1, 1, 1, 1;
             int(1..50)]
