problems/csplib-prob030/BalancedAcademicCurriculumProblem-models/noch/O2/minion/model-bacp-24-solution000001.solution
language Essence 1.3

letting curr be
        function(1 --> 1, 2 --> 10, 3 --> 3, 4 --> 2, 5 --> 1, 6 --> 9, 7 --> 2, 8 --> 2, 9 --> 2, 10 --> 1, 11 --> 8,
                 12 --> 1, 13 --> 2, 14 --> 1, 15 --> 7, 16 --> 7, 17 --> 3, 18 --> 3, 19 --> 6, 20 --> 3, 21 --> 4,
                 22 --> 3, 23 --> 5, 24 --> 5, 25 --> 4, 26 --> 5, 27 --> 6, 28 --> 4, 29 --> 8, 30 --> 3, 31 --> 9,
                 32 --> 4, 33 --> 3, 34 --> 3, 35 --> 3, 36 --> 4, 37 --> 10, 38 --> 4, 39 --> 4, 40 --> 3, 41 --> 2,
                 42 --> 2, 43 --> 2, 44 --> 2, 45 --> 2, 46 --> 1, 47 --> 1, 48 --> 1, 49 --> 1, 50 --> 1)
